HUN,8,6,908
0,24,3,24,4,21,5,28,2,29,1,26
1,27,5,22,4,28,3,29,0,27,2,25
2,24,3,26,4,29,5,24,1,27,0,22
2,24,3,30,4,28,5,29,0,30,1,24
4,30,1,28,2,28,3,29,5,21,0,25
4,25,5,24,2,27,0,23,3,28,1,25
0,23,4,22,2,25,3,22,5,23,1,30
3,24,5,25,4,21,0,21,2,26,1,24
